NAME : P131222.92179.tour
COMMENT : Length = 92179
COMMENT : Found by LKH-3 [Keld Helsgaun] Tue Dec 17 14:07:43 2024
TYPE : TOUR
DIMENSION : 190
TOUR_SECTION
1
146
171
2
148
172
3
173
4
75
112
107
111
100
28
150
42
166
155
149
94
153
135
65
157
163
26
83
86
125
165
106
82
80
66
76
118
53
160
99
68
90
36
142
167
114
54
97
60
84
131
87
69
78
73
132
25
52
21
85
159
124
144
33
105
102
47
162
61
44
81
32
120
126
127
139
136
143
72
170
130
24
110
23
151
119
96
161
138
57
34
128
63
174
5
175
6
176
7
177
8
178
9
55
152
179
10
180
11
181
12
182
13
183
14
116
121
59
46
77
101
40
29
164
35
56
41
129
137
108
62
79
147
117
74
37
158
115
31
141
49
30
140
113
71
48
92
104
27
169
64
67
93
91
88
70
156
134
39
45
154
123
43
109
51
50
122
98
145
58
95
89
22
103
168
133
38
184
15
185
16
186
17
187
18
188
19
189
20
190
-1
EOF
